p edge 34 232
e 1 2
e 1 3
e 1 4
e 1 5
e 1 8
e 1 9
e 1 12
e 1 14
e 1 15
e 1 18
e 1 20
e 1 21
e 1 24
e 1 26
e 1 28
e 1 32
e 1 34
e 2 3
e 2 6
e 2 13
e 2 15
e 2 17
e 2 18
e 2 21
e 2 23
e 2 24
e 2 28
e 2 32
e 3 4
e 3 5
e 3 6
e 3 10
e 3 14
e 3 18
e 3 19
e 3 22
e 3 25
e 3 27
e 3 31
e 3 33
e 4 6
e 4 8
e 4 9
e 4 10
e 4 12
e 4 13
e 4 16
e 4 18
e 4 20
e 4 22
e 4 23
e 4 24
e 4 26
e 4 29
e 4 30
e 4 32
e 4 34
e 5 7
e 5 9
e 5 12
e 5 13
e 5 17
e 5 18
e 5 21
e 5 27
e 5 29
e 5 32
e 5 34
e 6 12
e 6 13
e 6 14
e 6 15
e 6 16
e 6 18
e 6 20
e 6 21
e 6 23
e 6 24
e 6 27
e 6 28
e 6 30
e 6 31
e 6 32
e 7 9
e 7 10
e 7 15
e 7 16
e 7 23
e 7 24
e 7 25
e 7 27
e 7 31
e 7 32
e 7 33
e 8 9
e 8 14
e 8 16
e 8 19
e 8 21
e 8 22
e 8 23
e 8 24
e 8 25
e 8 26
e 8 27
e 8 33
e 8 34
e 9 10
e 9 13
e 9 15
e 9 17
e 9 18
e 9 19
e 9 22
e 9 23
e 9 24
e 9 25
e 9 29
e 9 30
e 9 34
e 10 11
e 10 13
e 10 20
e 10 21
e 11 12
e 11 16
e 11 17
e 11 19
e 11 20
e 11 22
e 11 23
e 11 26
e 11 30
e 11 31
e 12 13
e 12 14
e 12 15
e 12 17
e 12 18
e 12 19
e 12 21
e 12 22
e 12 23
e 12 31
e 12 33
e 13 15
e 13 18
e 13 20
e 13 21
e 13 23
e 13 25
e 13 27
e 13 28
e 13 29
e 13 34
e 14 16
e 14 18
e 14 19
e 14 22
e 14 26
e 14 28
e 14 32
e 15 17
e 15 22
e 15 23
e 15 24
e 15 25
e 15 27
e 15 31
e 15 32
e 15 33
e 16 19
e 16 21
e 16 22
e 16 23
e 16 26
e 16 31
e 16 34
e 17 22
e 17 26
e 17 28
e 17 29
e 17 32
e 18 22
e 18 23
e 18 26
e 18 27
e 18 31
e 18 34
e 19 23
e 19 27
e 19 28
e 19 29
e 19 31
e 19 32
e 19 33
e 20 23
e 20 24
e 20 25
e 20 30
e 21 30
e 22 29
e 22 30
e 22 31
e 22 32
e 22 34
e 23 25
e 23 26
e 23 28
e 23 30
e 23 31
e 23 33
e 23 34
e 24 27
e 24 28
e 24 29
e 24 32
e 24 33
e 25 27
e 25 33
e 26 30
e 27 28
e 27 33
e 28 29
e 28 30
e 28 31
e 29 31
e 30 33
e 31 32
e 31 34
e 32 33
e 33 34
